
Gurobi 10.0.1 (win64) logging started Sun Aug 27 19:51:41 2023

Set parameter LogFile to value "results//log/Fattahi_setup_07_modified_old_deadline.log"
Gurobi Optimizer version 10.0.1 build v10.0.1rc0 (win64)

CPU model: AMD Ryzen 7 3700X 8-Core Processor, instruction set [SSE2|AVX|AVX2]
Thread count: 8 physical cores, 16 logical processors, using up to 16 threads

Optimize a model with 129 rows, 124 columns and 456 nonzeros
Model fingerprint: 0xe2c73849
Model has 1 quadratic constraint
Variable types: 18 continuous, 106 integer (105 binary)
Coefficient statistics:
  Matrix range     [1e+00, 1e+06]
  QMatrix range    [1e+00, 1e+00]
  QLMatrix range   [1e+00, 4e+02]
  Objective range  [1e+00, 1e+00]
  Bounds range     [1e+00, 1e+00]
  RHS range        [1e+00, 3e+06]
Presolve removed 27 rows and 62 columns
Presolve time: 0.00s
Presolved: 109 rows, 68 columns, 445 nonzeros
Variable types: 24 continuous, 44 integer (43 binary)
Found heuristic solution: objective 2313.0000000
Found heuristic solution: objective 1856.0000000

Root relaxation: objective 0.000000e+00, 19 iterations, 0.00 seconds (0.00 work units)

    Nodes    |    Current Node    |     Objective Bounds      |     Work
 Expl Unexpl |  Obj  Depth IntInf | Incumbent    BestBd   Gap | It/Node Time

     0     0    0.00000    0    5 1856.00000    0.00000   100%     -    0s
H    0     0                    1854.0000000    0.00000   100%     -    0s
H    0     0                    1853.0000000    0.00000   100%     -    0s
H    0     0                    1851.0000000    0.00000   100%     -    0s
     0     0    0.00000    0    6 1851.00000    0.00000   100%     -    0s
H    0     0                    1850.0000000    0.00000   100%     -    0s
H    0     0                    1560.0000000    0.00000   100%     -    0s
     0     0    0.00000    0    8 1560.00000    0.00000   100%     -    0s
     0     0  912.03516    0    6 1560.00000  912.03516  41.5%     -    0s
     0     0  933.00000    0    7 1560.00000  933.00000  40.2%     -    0s
H    0     0                    1548.0000000  948.00000  38.8%     -    0s
     0     0  958.00000    0   14 1548.00000  958.00000  38.1%     -    0s
     0     0  973.00000    0   11 1548.00000  973.00000  37.1%     -    0s
H    0     0                    1541.0000000  976.00000  36.7%     -    0s
     0     0  976.00000    0   10 1541.00000  976.00000  36.7%     -    0s
     0     0  976.00332    0   10 1541.00000  976.00332  36.7%     -    0s
     0     0  979.00597    0   10 1541.00000  979.00597  36.5%     -    0s
     0     0  981.00000    0   11 1541.00000  981.00000  36.3%     -    0s
     0     0  981.00000    0   11 1541.00000  981.00000  36.3%     -    0s
     0     2  981.00000    0   10 1541.00000  981.00000  36.3%     -    0s
H   69    35                    1539.0000000  984.00000  36.1%   4.0    0s
H   78    39                    1522.0000000  984.00000  35.3%   4.1    0s
H   83    39                    1492.0000000  985.00000  34.0%   4.2    0s

Cutting planes:
  Learned: 24
  Cover: 5
  Implied bound: 16
  MIR: 1
  Flow cover: 15
  Inf proof: 1
  RLT: 7
  Relax-and-lift: 2

Explored 642 nodes (2636 simplex iterations) in 0.09 seconds (0.03 work units)
Thread count was 16 (of 16 available processors)

Solution count 10: 1492 1522 1539 ... 1854

Optimal solution found (tolerance 1.00e-04)
Best objective 1.492000000000e+03, best bound 1.492000000000e+03, gap 0.0000%
Warning: constraint name "precedence between 0,1 to 0,0 if x_[j,l,h,z,i]=1" has a space
Warning: constraint name "precedence between 0,1 to 0,0 if x_[j,l,h,z,i]=1" has a space
Warning: default constraint names used to write mps file
